NAME : LPS-n32-m160
COMMENT : (Lartu-Peter-Santi Plot, instance 11760 out of 39200. 32 customers.)
TYPE : CVRP
DIMENSION : 32
EDGE_WEIGHT_TYPE : EUC_2D
CAPACITY : 138
NODE_COORD_SECTION
 1 8 31
 2 21 9
 3 100 10
 4 8 57
 5 32 78
 6 38 34
 7 75 61
 8 63 41
 9 63 9
 10 71 91
 11 97 76
 12 35 76
 13 33 0
 14 49 58
 15 7 22
 16 97 46
 17 0 85
 18 43 37
 19 12 76
 20 39 90
 21 51 44
 22 56 96
 23 51 27
 24 39 81
 25 18 18
 26 80 10
 27 100 7
 28 25 6
 29 54 23
 30 35 66
 31 72 41
 32 75 9
DEMAND_SECTION
1 0
2 88
3 23
4 34
5 23
6 121
7 116
8 62
9 118
10 83
11 12
12 103
13 49
14 78
15 2
16 98
17 98
18 112
19 112
20 126
21 84
22 95
23 110
24 68
25 58
26 80
27 127
28 24
29 36
30 14
31 78
32 95
DEPOT_SECTION
 1
 -1
EOF
